
  22    0


   0  10 2 3 4 5 8 9 18 19 20 21 
   4   6 17 16 14 10 7 6 
   3   3 14 13 10 
   2   3 13 11 10 
   8   2 15 11 
   6   1 12 
   8   1 12 
   4   1 11 
   4   1 10 
  10   1 22
   9   1 22
   4   1 22
   7   1 22
   4   1 22
  10   1 22
   6   1 22
   1   1 22
   3   1 22
   5   1 22
   7   1 22
  10   1 22
   0   0 
